&CONTROL
    calculation = 'scf'
    prefix = 'GaAs'
    pseudo_dir = './'
    wf_collect = .true.
/
&SYSTEM
    ibrav = 2
    celldm(1) = 10.6867
    nat = 2
    ntyp = 2
    ecutwfc = 70
    ecutrho = 244
/
&ELECTRONS
    mixing_mode = 'plain'
    mixing_beta = 0.7
    conv_thr = 1.0d-8
    diago_david_ndim = 4
/
ATOMIC_SPECIES
As   74.921595 As.pbe-n-rrkjus_psl.0.2.UPF
Ga   69.723 Ga.pbe-dn-kjpaw_psl.1.0.0.UPF
ATOMIC_POSITIONS
Ga 0.00 0.00 0.00
As 0.25 0.25 0.25
K_POINTS {automatic}
8 8 8 0 0 0