&BANDS
  prefix="GaAs"
  lsym = .true.
  outdir="."
  filband="GaAs.dat"
/
